100 
13 73
30 16
22 61
70 72
86 16
54 54
65 97
80 69
99 88
41 75
22 23
47 56
21 91
69 14
42 41
41 64
24 75
4 31
88 25
48 71
1 50
59 11
94 39
5 44
83 33
27 90
87 10
16 72
97 48
9 57
8 69
88 85
63 53
82 67
68 33
3 53
96 42
60 77
38 12
1 67
24 17
59 71
89 63
61 87
9 8
44 100
80 77
95 76
64 58
77 34
27 98
54 16
36 29
51 41
42 87
2 45
86 44
93 74
100 85
84 62
7 8
62 3
21 50
72 96
71 60
4 59
16 30
81 71
60 75
53 25
87 49
54 55
99 36
9 79
81 89
52 30
63 8
46 78
90 53
39 96
87 16
99 60
22 43
86 94
6 46
52 98
80 46
72 18
33 13
3 32
28 48
8 43
26 27
96 44
75 83
28 4
43 82
57 38
50 12
44 51